(set-info :smt-lib-version 2.6)
(set-logic QF_LRA)
(set-info :source |
Fully parameterized specification and verification of a synchronizer   
circuit modeling metastability at various levels of refinement.     
A paper describing this specification, to be published in Designing     
Correct Circuits (DCC), 2006, is available from the authors.            

Geoffrey Brown, Indiana University <geobrown@cs.indiana.edu>
Lee Pike, Galois Connections, Inc. <leepike@galois.com>

Translated into CVC format by Leonardo de Moura.

This benchmark was automatically translated into SMT-LIB format from
CVC format using CVC Lite

|)
(set-info :category "industrial")
(set-info :status sat)
(declare-fun x_0 () Bool)
(declare-fun x_1 () Bool)
(declare-fun x_2 () Real)
(declare-fun x_3 () Real)
(declare-fun x_4 () Bool)
(declare-fun x_5 () Bool)
(declare-fun x_6 () Real)
(declare-fun x_7 () Real)
(declare-fun x_8 () Bool)
(declare-fun x_9 () Bool)
(declare-fun x_10 () Real)
(declare-fun x_11 () Real)
(declare-fun x_12 () Bool)
(declare-fun x_13 () Bool)
(declare-fun x_14 () Real)
(declare-fun x_15 () Real)
(declare-fun x_16 () Bool)
(declare-fun x_17 () Bool)
(declare-fun x_18 () Real)
(declare-fun x_19 () Real)
(declare-fun x_20 () Bool)
(declare-fun x_21 () Bool)
(declare-fun x_22 () Real)
(declare-fun x_23 () Real)
(declare-fun x_24 () Bool)
(declare-fun x_25 () Bool)
(declare-fun x_26 () Real)
(declare-fun x_27 () Real)
(declare-fun x_28 () Bool)
(declare-fun x_29 () Bool)
(declare-fun x_30 () Real)
(declare-fun x_31 () Real)
(declare-fun x_32 () Bool)
(declare-fun x_33 () Bool)
(declare-fun x_34 () Real)
(declare-fun x_35 () Real)
(declare-fun x_36 () Bool)
(declare-fun x_37 () Bool)
(declare-fun x_38 () Real)
(declare-fun x_39 () Real)
(declare-fun x_40 () Bool)
(declare-fun x_41 () Bool)
(declare-fun x_42 () Real)
(declare-fun x_43 () Real)
(declare-fun x_44 () Bool)
(declare-fun x_45 () Bool)
(declare-fun x_46 () Real)
(declare-fun x_47 () Real)
(declare-fun x_48 () Bool)
(declare-fun x_49 () Bool)
(declare-fun x_50 () Real)
(declare-fun x_51 () Real)
(declare-fun x_52 () Bool)
(declare-fun x_53 () Bool)
(declare-fun x_54 () Real)
(declare-fun x_55 () Real)
(declare-fun x_56 () Real)
(declare-fun x_57 () Real)
(declare-fun x_58 () Real)
(declare-fun x_59 () Real)
(declare-fun x_60 () Real)
(declare-fun x_61 () Real)
(declare-fun x_62 () Real)
(declare-fun x_63 () Real)
(declare-fun x_64 () Real)
(declare-fun x_65 () Real)
(declare-fun x_66 () Real)
(declare-fun x_67 () Real)
(declare-fun x_68 () Real)
(declare-fun x_69 () Real)
(declare-fun x_70 () Real)
(declare-fun x_71 () Real)
(declare-fun x_72 () Real)
(declare-fun x_73 () Real)
(declare-fun x_74 () Real)
(declare-fun x_75 () Real)
(declare-fun x_76 () Real)
(declare-fun x_77 () Real)
(declare-fun x_78 () Real)
(declare-fun x_79 () Real)
(declare-fun x_80 () Real)
(declare-fun x_81 () Real)
(declare-fun x_82 () Real)
(declare-fun x_83 () Real)
(declare-fun x_84 () Real)
(declare-fun x_85 () Real)
(declare-fun x_86 () Real)
(declare-fun x_87 () Real)
(declare-fun x_88 () Real)
(declare-fun x_89 () Real)
(declare-fun x_90 () Real)
(declare-fun x_91 () Real)
(declare-fun x_92 () Real)
(declare-fun x_93 () Real)
(declare-fun x_94 () Real)
(declare-fun x_95 () Real)
(declare-fun x_96 () Real)
(declare-fun x_97 () Real)
(declare-fun x_98 () Real)
(declare-fun x_99 () Real)
(declare-fun x_100 () Real)
(declare-fun x_101 () Real)
(declare-fun x_102 () Real)
(declare-fun x_103 () Real)
(declare-fun x_104 () Real)
(declare-fun x_105 () Real)
(declare-fun x_106 () Real)
(declare-fun x_107 () Real)
(declare-fun x_108 () Real)
(declare-fun x_109 () Real)
(declare-fun x_110 () Real)
(declare-fun x_111 () Real)
(declare-fun x_112 () Real)
(declare-fun x_113 () Real)
(declare-fun x_114 () Real)
(declare-fun x_115 () Real)
(declare-fun x_116 () Real)
(declare-fun x_117 () Real)
(declare-fun x_118 () Real)
(declare-fun x_119 () Real)
(declare-fun x_120 () Real)
(declare-fun x_121 () Real)
(declare-fun x_122 () Real)
(declare-fun x_123 () Real)
(declare-fun x_124 () Real)
(declare-fun x_125 () Real)
(declare-fun x_126 () Real)
(declare-fun x_127 () Real)
(declare-fun x_128 () Real)
(declare-fun x_129 () Real)
(declare-fun x_130 () Real)
(declare-fun x_131 () Real)
(declare-fun x_132 () Real)
(declare-fun x_133 () Real)
(declare-fun x_134 () Real)
(declare-fun x_135 () Bool)
(declare-fun x_136 () Bool)
(declare-fun x_137 () Real)
(declare-fun x_138 () Bool)
(declare-fun x_139 () Bool)
(declare-fun x_140 () Bool)
(declare-fun x_141 () Bool)
(declare-fun x_142 () Bool)
(declare-fun x_143 () Real)
(declare-fun x_144 () Bool)
(declare-fun x_145 () Real)
(declare-fun x_146 () Real)
(declare-fun x_147 () Real)
(declare-fun x_148 () Bool)
(declare-fun x_149 () Real)
(declare-fun x_150 () Bool)
(declare-fun x_151 () Bool)
(declare-fun x_152 () Real)
(declare-fun x_153 () Bool)
(declare-fun x_154 () Real)
(declare-fun x_155 () Real)
(declare-fun x_156 () Real)
(declare-fun x_157 () Bool)
(declare-fun x_158 () Real)
(declare-fun x_159 () Bool)
(declare-fun x_160 () Bool)
(declare-fun x_161 () Real)
(declare-fun x_162 () Bool)
(declare-fun x_163 () Real)
(declare-fun x_164 () Real)
(declare-fun x_165 () Real)
(declare-fun x_166 () Bool)
(declare-fun x_167 () Real)
(declare-fun x_168 () Bool)
(declare-fun x_169 () Bool)
(declare-fun x_170 () Real)
(declare-fun x_171 () Bool)
(declare-fun x_172 () Real)
(declare-fun x_173 () Real)
(declare-fun x_174 () Real)
(declare-fun x_175 () Bool)
(declare-fun x_176 () Real)
(declare-fun x_177 () Bool)
(declare-fun x_178 () Bool)
(declare-fun x_179 () Real)
(declare-fun x_180 () Bool)
(declare-fun x_181 () Real)
(declare-fun x_182 () Real)
(declare-fun x_183 () Real)
(declare-fun x_184 () Bool)
(declare-fun x_185 () Real)
(declare-fun x_186 () Bool)
(declare-fun x_187 () Bool)
(declare-fun x_188 () Real)
(declare-fun x_189 () Bool)
(declare-fun x_190 () Real)
(declare-fun x_191 () Real)
(declare-fun x_192 () Real)
(declare-fun x_193 () Bool)
(declare-fun x_194 () Real)
(declare-fun x_195 () Bool)
(declare-fun x_196 () Bool)
(declare-fun x_197 () Real)
(declare-fun x_198 () Bool)
(declare-fun x_199 () Real)
(declare-fun x_200 () Real)
(declare-fun x_201 () Real)
(declare-fun x_202 () Bool)
(declare-fun x_203 () Real)
(declare-fun x_204 () Bool)
(declare-fun x_205 () Bool)
(declare-fun x_206 () Real)
(declare-fun x_207 () Bool)
(declare-fun x_208 () Real)
(declare-fun x_209 () Real)
(declare-fun x_210 () Real)
(declare-fun x_211 () Bool)
(declare-fun x_212 () Real)
(declare-fun x_213 () Bool)
(declare-fun x_214 () Bool)
(declare-fun x_215 () Real)
(declare-fun x_216 () Bool)
(declare-fun x_217 () Real)
(declare-fun x_218 () Real)
(declare-fun x_219 () Real)
(declare-fun x_220 () Bool)
(declare-fun x_221 () Real)
(declare-fun x_222 () Bool)
(declare-fun x_223 () Bool)
(declare-fun x_224 () Real)
(declare-fun x_225 () Bool)
(declare-fun x_226 () Real)
(declare-fun x_227 () Real)
(declare-fun x_228 () Real)
(declare-fun x_229 () Bool)
(declare-fun x_230 () Real)
(declare-fun x_231 () Bool)
(declare-fun x_232 () Bool)
(declare-fun x_233 () Real)
(declare-fun x_234 () Bool)
(declare-fun x_235 () Real)
(declare-fun x_236 () Real)
(declare-fun x_237 () Real)
(declare-fun x_238 () Bool)
(declare-fun x_239 () Real)
(declare-fun x_240 () Bool)
(declare-fun x_241 () Bool)
(declare-fun x_242 () Real)
(declare-fun x_243 () Bool)
(declare-fun x_244 () Real)
(declare-fun x_245 () Real)
(declare-fun x_246 () Real)
(declare-fun x_247 () Bool)
(declare-fun x_248 () Real)
(declare-fun x_249 () Bool)
(declare-fun x_250 () Bool)
(declare-fun x_251 () Real)
(declare-fun x_252 () Bool)
(declare-fun x_253 () Real)
(declare-fun x_254 () Real)
(declare-fun x_255 () Real)
(declare-fun x_256 () Bool)
(declare-fun x_257 () Real)
(declare-fun x_258 () Real)
(declare-fun x_259 () Bool)
(declare-fun x_260 () Bool)
(declare-fun x_261 () Bool)
(declare-fun x_262 () Bool)
(declare-fun x_263 () Real)
(declare-fun x_264 () Bool)
(declare-fun x_265 () Real)
(declare-fun x_266 () Real)
(declare-fun x_267 () Real)
(declare-fun x_268 () Real)
(assert (let ((?v_28 (ite (<= x_56 x_57) x_56 x_57)) (?v_26 (ite (<= x_65 x_66) x_65 x_66)) (?v_24 (ite (<= x_70 x_71) x_70 x_71)) (?v_22 (ite (<= x_75 x_76) x_75 x_76)) (?v_20 (ite (<= x_80 x_81) x_80 x_81)) (?v_18 (ite (<= x_85 x_86) x_85 x_86)) (?v_16 (ite (<= x_90 x_91) x_90 x_91)) (?v_14 (ite (<= x_95 x_96) x_95 x_96)) (?v_12 (ite (<= x_100 x_101) x_100 x_101)) (?v_10 (ite (<= x_105 x_106) x_105 x_106)) (?v_8 (ite (<= x_110 x_111) x_110 x_111)) (?v_6 (ite (<= x_115 x_116) x_115 x_116)) (?v_4 (ite (<= x_120 x_121) x_120 x_121)) (?v_2 (ite (<= x_125 x_126) x_125 x_126)) (?v_0 (ite (<= x_130 x_131) x_130 x_131)) (?v_217 (= x_67 x_61)) (?v_219 (= x_57 x_66)) (?v_221 (= x_69 x_63)) (?v_215 (= x_56 x_65))) (let ((?v_222 (not ?v_215)) (?v_225 (= x_68 x_62)) (?v_212 (= x_135 x_136)) (?v_213 (= x_7 x_3)) (?v_216 (ite (<= x_57 x_56) x_57 x_56)) (?v_203 (= x_72 x_67)) (?v_205 (= x_66 x_71)) (?v_207 (= x_74 x_69)) (?v_201 (= x_65 x_70))) (let ((?v_208 (not ?v_201)) (?v_211 (= x_73 x_68)) (?v_198 (= x_148 x_135)) (?v_199 (= x_11 x_7)) (?v_202 (ite (<= x_66 x_65) x_66 x_65)) (?v_189 (= x_77 x_72)) (?v_191 (= x_71 x_76)) (?v_193 (= x_79 x_74)) (?v_187 (= x_70 x_75))) (let ((?v_194 (not ?v_187)) (?v_197 (= x_78 x_73)) (?v_184 (= x_157 x_148)) (?v_185 (= x_15 x_11)) (?v_188 (ite (<= x_71 x_70) x_71 x_70)) (?v_175 (= x_82 x_77)) (?v_177 (= x_76 x_81)) (?v_179 (= x_84 x_79)) (?v_173 (= x_75 x_80))) (let ((?v_180 (not ?v_173)) (?v_183 (= x_83 x_78)) (?v_170 (= x_166 x_157)) (?v_171 (= x_19 x_15)) (?v_174 (ite (<= x_76 x_75) x_76 x_75)) (?v_161 (= x_87 x_82)) (?v_163 (= x_81 x_86)) (?v_165 (= x_89 x_84)) (?v_159 (= x_80 x_85))) (let ((?v_166 (not ?v_159)) (?v_169 (= x_88 x_83)) (?v_156 (= x_175 x_166)) (?v_157 (= x_23 x_19)) (?v_160 (ite (<= x_81 x_80) x_81 x_80)) (?v_147 (= x_92 x_87)) (?v_149 (= x_86 x_91)) (?v_151 (= x_94 x_89)) (?v_145 (= x_85 x_90))) (let ((?v_152 (not ?v_145)) (?v_155 (= x_93 x_88)) (?v_142 (= x_184 x_175)) (?v_143 (= x_27 x_23)) (?v_146 (ite (<= x_86 x_85) x_86 x_85)) (?v_133 (= x_97 x_92)) (?v_135 (= x_91 x_96)) (?v_137 (= x_99 x_94)) (?v_131 (= x_90 x_95))) (let ((?v_138 (not ?v_131)) (?v_141 (= x_98 x_93)) (?v_128 (= x_193 x_184)) (?v_129 (= x_31 x_27)) (?v_132 (ite (<= x_91 x_90) x_91 x_90)) (?v_119 (= x_102 x_97)) (?v_121 (= x_96 x_101)) (?v_123 (= x_104 x_99)) (?v_117 (= x_95 x_100))) (let ((?v_124 (not ?v_117)) (?v_127 (= x_103 x_98)) (?v_114 (= x_202 x_193)) (?v_115 (= x_35 x_31)) (?v_118 (ite (<= x_96 x_95) x_96 x_95)) (?v_105 (= x_107 x_102)) (?v_107 (= x_101 x_106)) (?v_109 (= x_109 x_104)) (?v_103 (= x_100 x_105))) (let ((?v_110 (not ?v_103)) (?v_113 (= x_108 x_103)) (?v_100 (= x_211 x_202)) (?v_101 (= x_39 x_35)) (?v_104 (ite (<= x_101 x_100) x_101 x_100)) (?v_91 (= x_112 x_107)) (?v_93 (= x_106 x_111)) (?v_95 (= x_114 x_109)) (?v_89 (= x_105 x_110))) (let ((?v_96 (not ?v_89)) (?v_99 (= x_113 x_108)) (?v_86 (= x_220 x_211)) (?v_87 (= x_43 x_39)) (?v_90 (ite (<= x_106 x_105) x_106 x_105)) (?v_77 (= x_117 x_112)) (?v_79 (= x_111 x_116)) (?v_81 (= x_119 x_114)) (?v_75 (= x_110 x_115))) (let ((?v_82 (not ?v_75)) (?v_85 (= x_118 x_113)) (?v_72 (= x_229 x_220)) (?v_73 (= x_47 x_43)) (?v_76 (ite (<= x_111 x_110) x_111 x_110)) (?v_63 (= x_122 x_117)) (?v_65 (= x_116 x_121)) (?v_67 (= x_124 x_119)) (?v_61 (= x_115 x_120))) (let ((?v_68 (not ?v_61)) (?v_71 (= x_123 x_118)) (?v_58 (= x_238 x_229)) (?v_59 (= x_51 x_47)) (?v_62 (ite (<= x_116 x_115) x_116 x_115)) (?v_49 (= x_127 x_122)) (?v_51 (= x_121 x_126)) (?v_53 (= x_129 x_124)) (?v_47 (= x_120 x_125))) (let ((?v_54 (not ?v_47)) (?v_57 (= x_128 x_123)) (?v_44 (= x_247 x_238)) (?v_45 (= x_55 x_51)) (?v_48 (ite (<= x_121 x_120) x_121 x_120)) (?v_35 (= x_132 x_127)) (?v_37 (= x_126 x_131)) (?v_39 (= x_134 x_129)) (?v_33 (= x_125 x_130))) (let ((?v_40 (not ?v_33)) (?v_43 (= x_133 x_128)) (?v_30 (= x_256 x_247)) (?v_31 (= x_257 x_55)) (?v_34 (ite (<= x_126 x_125) x_126 x_125)) (?v_32 (= x_260 x_53)) (?v_42 (= x_55 x_257)) (?v_46 (= x_53 x_49)) (?v_56 (= x_51 x_55)) (?v_60 (= x_49 x_45)) (?v_70 (= x_47 x_51)) (?v_74 (= x_45 x_41)) (?v_84 (= x_43 x_47)) (?v_88 (= x_41 x_37)) (?v_98 (= x_39 x_43)) (?v_102 (= x_37 x_33)) (?v_112 (= x_35 x_39)) (?v_116 (= x_33 x_29)) (?v_126 (= x_31 x_35)) (?v_130 (= x_29 x_25)) (?v_140 (= x_27 x_31)) (?v_144 (= x_25 x_21)) (?v_154 (= x_23 x_27)) (?v_158 (= x_21 x_17)) (?v_168 (= x_19 x_23)) (?v_172 (= x_17 x_13)) (?v_182 (= x_15 x_19)) (?v_186 (= x_13 x_9)) (?v_196 (= x_11 x_15)) (?v_200 (= x_9 x_5)) (?v_210 (= x_7 x_11)) (?v_214 (= x_5 x_1)) (?v_224 (= x_3 x_7)) (?v_36 (<= x_129 ?v_2)) (?v_50 (<= x_124 ?v_4)) (?v_64 (<= x_119 ?v_6)) (?v_78 (<= x_114 ?v_8)) (?v_92 (<= x_109 ?v_10)) (?v_106 (<= x_104 ?v_12)) (?v_120 (<= x_99 ?v_14)) (?v_134 (<= x_94 ?v_16)) (?v_148 (<= x_89 ?v_18)) (?v_162 (<= x_84 ?v_20)) (?v_176 (<= x_79 ?v_22)) (?v_190 (<= x_74 ?v_24)) (?v_204 (<= x_69 ?v_26)) (?v_218 (<= x_63 ?v_28)) (?v_1 (+ ?v_0 x_60)) (?v_38 (+ ?v_2 x_64)) (?v_3 (+ ?v_2 x_60)) (?v_52 (+ ?v_4 x_64)) (?v_5 (+ ?v_4 x_60)) (?v_66 (+ ?v_6 x_64)) (?v_7 (+ ?v_6 x_60)) (?v_80 (+ ?v_8 x_64)) (?v_9 (+ ?v_8 x_60)) (?v_94 (+ ?v_10 x_64)) (?v_11 (+ ?v_10 x_60)) (?v_108 (+ ?v_12 x_64)) (?v_13 (+ ?v_12 x_60)) (?v_122 (+ ?v_14 x_64)) (?v_15 (+ ?v_14 x_60)) (?v_136 (+ ?v_16 x_64)) (?v_17 (+ ?v_16 x_60)) (?v_150 (+ ?v_18 x_64)) (?v_19 (+ ?v_18 x_60)) (?v_164 (+ ?v_20 x_64)) (?v_21 (+ ?v_20 x_60)) (?v_178 (+ ?v_22 x_64)) (?v_23 (+ ?v_22 x_60)) (?v_192 (+ ?v_24 x_64)) (?v_25 (+ ?v_24 x_60)) (?v_206 (+ ?v_26 x_64)) (?v_27 (+ ?v_26 x_60)) (?v_220 (+ ?v_28 x_64)) (?v_29 (+ ?v_28 x_60))) (let ((?v_41 (+ ?v_34 x_60)) (?v_55 (+ ?v_48 x_60)) (?v_69 (+ ?v_62 x_60)) (?v_83 (+ ?v_76 x_60)) (?v_97 (+ ?v_90 x_60)) (?v_111 (+ ?v_104 x_60)) (?v_125 (+ ?v_118 x_60)) (?v_139 (+ ?v_132 x_60)) (?v_153 (+ ?v_146 x_60)) (?v_167 (+ ?v_160 x_60)) (?v_181 (+ ?v_174 x_60)) (?v_195 (+ ?v_188 x_60)) (?v_209 (+ ?v_202 x_60)) (?v_223 (+ ?v_216 x_60))) (and (and (and (and (and (and (and (and (and (and (and (and (and (and (and (and (and (and (and (and (and (and (and (and (and (and (and (and (and (and (and (and (and (and (and (and (and (and (and (and (and (and (and (and (and (and (and (and (and (and (and (and (and (and (and (and (and (and (and (and (and (and (and (and (and (and (and (and (and (and (and (and (and (and (and (and (and (and (and (and (and (and (and (and (and (and (and (and (and (and (and (and (and (and (and (and (and (and (and (and (and (and (and (and (and (and (and (and (and (and (and (and (and (and (and (and (and (and (and (and (and (and (and (and (and (and (and (and (and (and (and (and (and (and (and (and (and (and (and (and (and (and (and (and (and (and (and (and (and (and (and (and (and (and (and (and (and (and (and (and (and (and (and (and (and (and (and (and (and (and (and (and (and (and (and (and (and (and (and (and (and (and (and (and (and (and (and (and (and (and (and (and (and (and (and (and (and (and (and (> x_58 0) (> x_59 0)) (>= x_60 0)) (< x_60 x_58)) (< x_60 x_59)) (>= x_64 0)) (< x_64 x_58)) (< x_64 x_59)) (or (= x_52 x_53) (= x_54 x_55))) (or (= x_48 x_49) (= x_50 x_51))) (or (= x_44 x_45) (= x_46 x_47))) (or (= x_40 x_41) (= x_42 x_43))) (or (= x_36 x_37) (= x_38 x_39))) (or (= x_32 x_33) (= x_34 x_35))) (or (= x_28 x_29) (= x_30 x_31))) (or (= x_24 x_25) (= x_26 x_27))) (or (= x_20 x_21) (= x_22 x_23))) (or (= x_16 x_17) (= x_18 x_19))) (or (= x_12 x_13) (= x_14 x_15))) (or (= x_8 x_9) (= x_10 x_11))) (or (= x_4 x_5) (= x_6 x_7))) (or (= x_0 x_1) (= x_2 x_3))) (or (<= x_132 ?v_0) (<= (- (+ x_132 x_59) x_60) x_131))) (or (<= x_133 ?v_0) (<= (- (+ x_133 x_59) x_60) x_131))) (or (<= x_134 ?v_0) (<= (- (+ x_134 x_58) x_64) x_130))) (<= x_134 (+ ?v_0 x_64))) (<= x_133 ?v_1)) (<= x_132 ?v_1)) (<= ?v_0 x_130)) (<= ?v_0 x_131)) (or (<= x_127 ?v_2) (<= (- (+ x_127 x_59) x_60) x_126))) (or (<= x_128 ?v_2) (<= (- (+ x_128 x_59) x_60) x_126))) (or ?v_36 (<= (- (+ x_129 x_58) x_64) x_125))) (<= x_129 ?v_38)) (<= x_128 ?v_3)) (<= x_127 ?v_3)) (<= ?v_2 x_125)) (<= ?v_2 x_126)) (or (<= x_122 ?v_4) (<= (- (+ x_122 x_59) x_60) x_121))) (or (<= x_123 ?v_4) (<= (- (+ x_123 x_59) x_60) x_121))) (or ?v_50 (<= (- (+ x_124 x_58) x_64) x_120))) (<= x_124 ?v_52)) (<= x_123 ?v_5)) (<= x_122 ?v_5)) (<= ?v_4 x_120)) (<= ?v_4 x_121)) (or (<= x_117 ?v_6) (<= (- (+ x_117 x_59) x_60) x_116))) (or (<= x_118 ?v_6) (<= (- (+ x_118 x_59) x_60) x_116))) (or ?v_64 (<= (- (+ x_119 x_58) x_64) x_115))) (<= x_119 ?v_66)) (<= x_118 ?v_7)) (<= x_117 ?v_7)) (<= ?v_6 x_115)) (<= ?v_6 x_116)) (or (<= x_112 ?v_8) (<= (- (+ x_112 x_59) x_60) x_111))) (or (<= x_113 ?v_8) (<= (- (+ x_113 x_59) x_60) x_111))) (or ?v_78 (<= (- (+ x_114 x_58) x_64) x_110))) (<= x_114 ?v_80)) (<= x_113 ?v_9)) (<= x_112 ?v_9)) (<= ?v_8 x_110)) (<= ?v_8 x_111)) (or (<= x_107 ?v_10) (<= (- (+ x_107 x_59) x_60) x_106))) (or (<= x_108 ?v_10) (<= (- (+ x_108 x_59) x_60) x_106))) (or ?v_92 (<= (- (+ x_109 x_58) x_64) x_105))) (<= x_109 ?v_94)) (<= x_108 ?v_11)) (<= x_107 ?v_11)) (<= ?v_10 x_105)) (<= ?v_10 x_106)) (or (<= x_102 ?v_12) (<= (- (+ x_102 x_59) x_60) x_101))) (or (<= x_103 ?v_12) (<= (- (+ x_103 x_59) x_60) x_101))) (or ?v_106 (<= (- (+ x_104 x_58) x_64) x_100))) (<= x_104 ?v_108)) (<= x_103 ?v_13)) (<= x_102 ?v_13)) (<= ?v_12 x_100)) (<= ?v_12 x_101)) (or (<= x_97 ?v_14) (<= (- (+ x_97 x_59) x_60) x_96))) (or (<= x_98 ?v_14) (<= (- (+ x_98 x_59) x_60) x_96))) (or ?v_120 (<= (- (+ x_99 x_58) x_64) x_95))) (<= x_99 ?v_122)) (<= x_98 ?v_15)) (<= x_97 ?v_15)) (<= ?v_14 x_95)) (<= ?v_14 x_96)) (or (<= x_92 ?v_16) (<= (- (+ x_92 x_59) x_60) x_91))) (or (<= x_93 ?v_16) (<= (- (+ x_93 x_59) x_60) x_91))) (or ?v_134 (<= (- (+ x_94 x_58) x_64) x_90))) (<= x_94 ?v_136)) (<= x_93 ?v_17)) (<= x_92 ?v_17)) (<= ?v_16 x_90)) (<= ?v_16 x_91)) (or (<= x_87 ?v_18) (<= (- (+ x_87 x_59) x_60) x_86))) (or (<= x_88 ?v_18) (<= (- (+ x_88 x_59) x_60) x_86))) (or ?v_148 (<= (- (+ x_89 x_58) x_64) x_85))) (<= x_89 ?v_150)) (<= x_88 ?v_19)) (<= x_87 ?v_19)) (<= ?v_18 x_85)) (<= ?v_18 x_86)) (or (<= x_82 ?v_20) (<= (- (+ x_82 x_59) x_60) x_81))) (or (<= x_83 ?v_20) (<= (- (+ x_83 x_59) x_60) x_81))) (or ?v_162 (<= (- (+ x_84 x_58) x_64) x_80))) (<= x_84 ?v_164)) (<= x_83 ?v_21)) (<= x_82 ?v_21)) (<= ?v_20 x_80)) (<= ?v_20 x_81)) (or (<= x_77 ?v_22) (<= (- (+ x_77 x_59) x_60) x_76))) (or (<= x_78 ?v_22) (<= (- (+ x_78 x_59) x_60) x_76))) (or ?v_176 (<= (- (+ x_79 x_58) x_64) x_75))) (<= x_79 ?v_178)) (<= x_78 ?v_23)) (<= x_77 ?v_23)) (<= ?v_22 x_75)) (<= ?v_22 x_76)) (or (<= x_72 ?v_24) (<= (- (+ x_72 x_59) x_60) x_71))) (or (<= x_73 ?v_24) (<= (- (+ x_73 x_59) x_60) x_71))) (or ?v_190 (<= (- (+ x_74 x_58) x_64) x_70))) (<= x_74 ?v_192)) (<= x_73 ?v_25)) (<= x_72 ?v_25)) (<= ?v_24 x_70)) (<= ?v_24 x_71)) (or (<= x_67 ?v_26) (<= (- (+ x_67 x_59) x_60) x_66))) (or (<= x_68 ?v_26) (<= (- (+ x_68 x_59) x_60) x_66))) (or ?v_204 (<= (- (+ x_69 x_58) x_64) x_65))) (<= x_69 ?v_206)) (<= x_68 ?v_27)) (<= x_67 ?v_27)) (<= ?v_26 x_65)) (<= ?v_26 x_66)) (or (<= x_61 ?v_28) (<= (- (+ x_61 x_59) x_60) x_57))) (or (<= x_62 ?v_28) (<= (- (+ x_62 x_59) x_60) x_57))) (or ?v_218 (<= (- (+ x_63 x_58) x_64) x_56))) (<= x_63 ?v_220)) (<= x_62 ?v_29)) (<= x_61 ?v_29)) (<= ?v_28 x_56)) (<= ?v_28 x_57)) (or (and (and (and (and (and (and (and (and (and (= x_258 0) (= x_259 x_252)) (= ?v_2 x_125)) (<= (+ ?v_2 x_58) x_130)) (or ?v_32 (= x_260 x_52))) (= x_261 x_249)) (= x_262 x_250)) (= x_131 x_126)) ?v_30) ?v_31) (and (and (and (and (and (and (and (and (and (= x_258 1) (= x_262 x_249)) (= ?v_2 x_126)) (<= (+ ?v_2 x_59) x_131)) (or (and (and (= x_263 0) ?v_30) ?v_31) (and (and (= x_263 1) (= x_247 x_250)) (= x_256 (not x_247))))) (= x_264 x_252)) (= x_259 x_52)) (= x_265 x_54)) (= x_130 x_125)) ?v_32))) (or (or (and (and (and (= x_266 0) ?v_40) (or (not (<= x_127 ?v_34)) (= x_264 x_247))) ?v_35) (and (and (and (= x_266 1) ?v_33) (xor x_247 x_256)) (= x_132 ?v_41))) (and (and (and (= x_266 2) ?v_33) (= x_247 x_256)) ?v_35))) (or (or (and (and (and (= x_267 0) (not ?v_37)) (or (not ?v_36) (= x_261 x_53))) ?v_39) (and (and (and (= x_267 1) ?v_37) (xor x_53 x_260)) (= x_134 ?v_38))) (and (and (and (= x_267 2) ?v_37) (= x_53 x_260)) ?v_39))) (or (or (and (and (and (= x_268 0) ?v_40) (or (not (<= x_128 ?v_34)) (= x_265 x_55))) ?v_43) (and (and (and (= x_268 1) ?v_33) (not ?v_42)) (= x_133 ?v_41))) (and (and (and (= x_268 2) ?v_33) ?v_42) ?v_43))) (or (and (and (and (and (and (and (and (and (and (= x_248 0) (= x_52 x_243)) (= ?v_4 x_120)) (<= (+ ?v_4 x_58) x_125)) (or ?v_46 (= x_53 x_48))) (= x_249 x_240)) (= x_250 x_241)) (= x_126 x_121)) ?v_44) ?v_45) (and (and (and (and (and (and (and (and (and (= x_248 1) (= x_250 x_240)) (= ?v_4 x_121)) (<= (+ ?v_4 x_59) x_126)) (or (and (and (= x_251 0) ?v_44) ?v_45) (and (and (= x_251 1) (= x_238 x_241)) (= x_247 (not x_238))))) (= x_252 x_243)) (= x_52 x_48)) (= x_54 x_50)) (= x_125 x_120)) ?v_46))) (or (or (and (and (and (= x_253 0) ?v_54) (or (not (<= x_122 ?v_48)) (= x_252 x_238))) ?v_49) (and (and (and (= x_253 1) ?v_47) (xor x_238 x_247)) (= x_127 ?v_55))) (and (and (and (= x_253 2) ?v_47) (= x_238 x_247)) ?v_49))) (or (or (and (and (and (= x_254 0) (not ?v_51)) (or (not ?v_50) (= x_249 x_49))) ?v_53) (and (and (and (= x_254 1) ?v_51) (xor x_49 x_53)) (= x_129 ?v_52))) (and (and (and (= x_254 2) ?v_51) (= x_49 x_53)) ?v_53))) (or (or (and (and (and (= x_255 0) ?v_54) (or (not (<= x_123 ?v_48)) (= x_54 x_51))) ?v_57) (and (and (and (= x_255 1) ?v_47) (not ?v_56)) (= x_128 ?v_55))) (and (and (and (= x_255 2) ?v_47) ?v_56) ?v_57))) (or (and (and (and (and (and (and (and (and (and (= x_239 0) (= x_48 x_234)) (= ?v_6 x_115)) (<= (+ ?v_6 x_58) x_120)) (or ?v_60 (= x_49 x_44))) (= x_240 x_231)) (= x_241 x_232)) (= x_121 x_116)) ?v_58) ?v_59) (and (and (and (and (and (and (and (and (and (= x_239 1) (= x_241 x_231)) (= ?v_6 x_116)) (<= (+ ?v_6 x_59) x_121)) (or (and (and (= x_242 0) ?v_58) ?v_59) (and (and (= x_242 1) (= x_229 x_232)) (= x_238 (not x_229))))) (= x_243 x_234)) (= x_48 x_44)) (= x_50 x_46)) (= x_120 x_115)) ?v_60))) (or (or (and (and (and (= x_244 0) ?v_68) (or (not (<= x_117 ?v_62)) (= x_243 x_229))) ?v_63) (and (and (and (= x_244 1) ?v_61) (xor x_229 x_238)) (= x_122 ?v_69))) (and (and (and (= x_244 2) ?v_61) (= x_229 x_238)) ?v_63))) (or (or (and (and (and (= x_245 0) (not ?v_65)) (or (not ?v_64) (= x_240 x_45))) ?v_67) (and (and (and (= x_245 1) ?v_65) (xor x_45 x_49)) (= x_124 ?v_66))) (and (and (and (= x_245 2) ?v_65) (= x_45 x_49)) ?v_67))) (or (or (and (and (and (= x_246 0) ?v_68) (or (not (<= x_118 ?v_62)) (= x_50 x_47))) ?v_71) (and (and (and (= x_246 1) ?v_61) (not ?v_70)) (= x_123 ?v_69))) (and (and (and (= x_246 2) ?v_61) ?v_70) ?v_71))) (or (and (and (and (and (and (and (and (and (and (= x_230 0) (= x_44 x_225)) (= ?v_8 x_110)) (<= (+ ?v_8 x_58) x_115)) (or ?v_74 (= x_45 x_40))) (= x_231 x_222)) (= x_232 x_223)) (= x_116 x_111)) ?v_72) ?v_73) (and (and (and (and (and (and (and (and (and (= x_230 1) (= x_232 x_222)) (= ?v_8 x_111)) (<= (+ ?v_8 x_59) x_116)) (or (and (and (= x_233 0) ?v_72) ?v_73) (and (and (= x_233 1) (= x_220 x_223)) (= x_229 (not x_220))))) (= x_234 x_225)) (= x_44 x_40)) (= x_46 x_42)) (= x_115 x_110)) ?v_74))) (or (or (and (and (and (= x_235 0) ?v_82) (or (not (<= x_112 ?v_76)) (= x_234 x_220))) ?v_77) (and (and (and (= x_235 1) ?v_75) (xor x_220 x_229)) (= x_117 ?v_83))) (and (and (and (= x_235 2) ?v_75) (= x_220 x_229)) ?v_77))) (or (or (and (and (and (= x_236 0) (not ?v_79)) (or (not ?v_78) (= x_231 x_41))) ?v_81) (and (and (and (= x_236 1) ?v_79) (xor x_41 x_45)) (= x_119 ?v_80))) (and (and (and (= x_236 2) ?v_79) (= x_41 x_45)) ?v_81))) (or (or (and (and (and (= x_237 0) ?v_82) (or (not (<= x_113 ?v_76)) (= x_46 x_43))) ?v_85) (and (and (and (= x_237 1) ?v_75) (not ?v_84)) (= x_118 ?v_83))) (and (and (and (= x_237 2) ?v_75) ?v_84) ?v_85))) (or (and (and (and (and (and (and (and (and (and (= x_221 0) (= x_40 x_216)) (= ?v_10 x_105)) (<= (+ ?v_10 x_58) x_110)) (or ?v_88 (= x_41 x_36))) (= x_222 x_213)) (= x_223 x_214)) (= x_111 x_106)) ?v_86) ?v_87) (and (and (and (and (and (and (and (and (and (= x_221 1) (= x_223 x_213)) (= ?v_10 x_106)) (<= (+ ?v_10 x_59) x_111)) (or (and (and (= x_224 0) ?v_86) ?v_87) (and (and (= x_224 1) (= x_211 x_214)) (= x_220 (not x_211))))) (= x_225 x_216)) (= x_40 x_36)) (= x_42 x_38)) (= x_110 x_105)) ?v_88))) (or (or (and (and (and (= x_226 0) ?v_96) (or (not (<= x_107 ?v_90)) (= x_225 x_211))) ?v_91) (and (and (and (= x_226 1) ?v_89) (xor x_211 x_220)) (= x_112 ?v_97))) (and (and (and (= x_226 2) ?v_89) (= x_211 x_220)) ?v_91))) (or (or (and (and (and (= x_227 0) (not ?v_93)) (or (not ?v_92) (= x_222 x_37))) ?v_95) (and (and (and (= x_227 1) ?v_93) (xor x_37 x_41)) (= x_114 ?v_94))) (and (and (and (= x_227 2) ?v_93) (= x_37 x_41)) ?v_95))) (or (or (and (and (and (= x_228 0) ?v_96) (or (not (<= x_108 ?v_90)) (= x_42 x_39))) ?v_99) (and (and (and (= x_228 1) ?v_89) (not ?v_98)) (= x_113 ?v_97))) (and (and (and (= x_228 2) ?v_89) ?v_98) ?v_99))) (or (and (and (and (and (and (and (and (and (and (= x_212 0) (= x_36 x_207)) (= ?v_12 x_100)) (<= (+ ?v_12 x_58) x_105)) (or ?v_102 (= x_37 x_32))) (= x_213 x_204)) (= x_214 x_205)) (= x_106 x_101)) ?v_100) ?v_101) (and (and (and (and (and (and (and (and (and (= x_212 1) (= x_214 x_204)) (= ?v_12 x_101)) (<= (+ ?v_12 x_59) x_106)) (or (and (and (= x_215 0) ?v_100) ?v_101) (and (and (= x_215 1) (= x_202 x_205)) (= x_211 (not x_202))))) (= x_216 x_207)) (= x_36 x_32)) (= x_38 x_34)) (= x_105 x_100)) ?v_102))) (or (or (and (and (and (= x_217 0) ?v_110) (or (not (<= x_102 ?v_104)) (= x_216 x_202))) ?v_105) (and (and (and (= x_217 1) ?v_103) (xor x_202 x_211)) (= x_107 ?v_111))) (and (and (and (= x_217 2) ?v_103) (= x_202 x_211)) ?v_105))) (or (or (and (and (and (= x_218 0) (not ?v_107)) (or (not ?v_106) (= x_213 x_33))) ?v_109) (and (and (and (= x_218 1) ?v_107) (xor x_33 x_37)) (= x_109 ?v_108))) (and (and (and (= x_218 2) ?v_107) (= x_33 x_37)) ?v_109))) (or (or (and (and (and (= x_219 0) ?v_110) (or (not (<= x_103 ?v_104)) (= x_38 x_35))) ?v_113) (and (and (and (= x_219 1) ?v_103) (not ?v_112)) (= x_108 ?v_111))) (and (and (and (= x_219 2) ?v_103) ?v_112) ?v_113))) (or (and (and (and (and (and (and (and (and (and (= x_203 0) (= x_32 x_198)) (= ?v_14 x_95)) (<= (+ ?v_14 x_58) x_100)) (or ?v_116 (= x_33 x_28))) (= x_204 x_195)) (= x_205 x_196)) (= x_101 x_96)) ?v_114) ?v_115) (and (and (and (and (and (and (and (and (and (= x_203 1) (= x_205 x_195)) (= ?v_14 x_96)) (<= (+ ?v_14 x_59) x_101)) (or (and (and (= x_206 0) ?v_114) ?v_115) (and (and (= x_206 1) (= x_193 x_196)) (= x_202 (not x_193))))) (= x_207 x_198)) (= x_32 x_28)) (= x_34 x_30)) (= x_100 x_95)) ?v_116))) (or (or (and (and (and (= x_208 0) ?v_124) (or (not (<= x_97 ?v_118)) (= x_207 x_193))) ?v_119) (and (and (and (= x_208 1) ?v_117) (xor x_193 x_202)) (= x_102 ?v_125))) (and (and (and (= x_208 2) ?v_117) (= x_193 x_202)) ?v_119))) (or (or (and (and (and (= x_209 0) (not ?v_121)) (or (not ?v_120) (= x_204 x_29))) ?v_123) (and (and (and (= x_209 1) ?v_121) (xor x_29 x_33)) (= x_104 ?v_122))) (and (and (and (= x_209 2) ?v_121) (= x_29 x_33)) ?v_123))) (or (or (and (and (and (= x_210 0) ?v_124) (or (not (<= x_98 ?v_118)) (= x_34 x_31))) ?v_127) (and (and (and (= x_210 1) ?v_117) (not ?v_126)) (= x_103 ?v_125))) (and (and (and (= x_210 2) ?v_117) ?v_126) ?v_127))) (or (and (and (and (and (and (and (and (and (and (= x_194 0) (= x_28 x_189)) (= ?v_16 x_90)) (<= (+ ?v_16 x_58) x_95)) (or ?v_130 (= x_29 x_24))) (= x_195 x_186)) (= x_196 x_187)) (= x_96 x_91)) ?v_128) ?v_129) (and (and (and (and (and (and (and (and (and (= x_194 1) (= x_196 x_186)) (= ?v_16 x_91)) (<= (+ ?v_16 x_59) x_96)) (or (and (and (= x_197 0) ?v_128) ?v_129) (and (and (= x_197 1) (= x_184 x_187)) (= x_193 (not x_184))))) (= x_198 x_189)) (= x_28 x_24)) (= x_30 x_26)) (= x_95 x_90)) ?v_130))) (or (or (and (and (and (= x_199 0) ?v_138) (or (not (<= x_92 ?v_132)) (= x_198 x_184))) ?v_133) (and (and (and (= x_199 1) ?v_131) (xor x_184 x_193)) (= x_97 ?v_139))) (and (and (and (= x_199 2) ?v_131) (= x_184 x_193)) ?v_133))) (or (or (and (and (and (= x_200 0) (not ?v_135)) (or (not ?v_134) (= x_195 x_25))) ?v_137) (and (and (and (= x_200 1) ?v_135) (xor x_25 x_29)) (= x_99 ?v_136))) (and (and (and (= x_200 2) ?v_135) (= x_25 x_29)) ?v_137))) (or (or (and (and (and (= x_201 0) ?v_138) (or (not (<= x_93 ?v_132)) (= x_30 x_27))) ?v_141) (and (and (and (= x_201 1) ?v_131) (not ?v_140)) (= x_98 ?v_139))) (and (and (and (= x_201 2) ?v_131) ?v_140) ?v_141))) (or (and (and (and (and (and (and (and (and (and (= x_185 0) (= x_24 x_180)) (= ?v_18 x_85)) (<= (+ ?v_18 x_58) x_90)) (or ?v_144 (= x_25 x_20))) (= x_186 x_177)) (= x_187 x_178)) (= x_91 x_86)) ?v_142) ?v_143) (and (and (and (and (and (and (and (and (and (= x_185 1) (= x_187 x_177)) (= ?v_18 x_86)) (<= (+ ?v_18 x_59) x_91)) (or (and (and (= x_188 0) ?v_142) ?v_143) (and (and (= x_188 1) (= x_175 x_178)) (= x_184 (not x_175))))) (= x_189 x_180)) (= x_24 x_20)) (= x_26 x_22)) (= x_90 x_85)) ?v_144))) (or (or (and (and (and (= x_190 0) ?v_152) (or (not (<= x_87 ?v_146)) (= x_189 x_175))) ?v_147) (and (and (and (= x_190 1) ?v_145) (xor x_175 x_184)) (= x_92 ?v_153))) (and (and (and (= x_190 2) ?v_145) (= x_175 x_184)) ?v_147))) (or (or (and (and (and (= x_191 0) (not ?v_149)) (or (not ?v_148) (= x_186 x_21))) ?v_151) (and (and (and (= x_191 1) ?v_149) (xor x_21 x_25)) (= x_94 ?v_150))) (and (and (and (= x_191 2) ?v_149) (= x_21 x_25)) ?v_151))) (or (or (and (and (and (= x_192 0) ?v_152) (or (not (<= x_88 ?v_146)) (= x_26 x_23))) ?v_155) (and (and (and (= x_192 1) ?v_145) (not ?v_154)) (= x_93 ?v_153))) (and (and (and (= x_192 2) ?v_145) ?v_154) ?v_155))) (or (and (and (and (and (and (and (and (and (and (= x_176 0) (= x_20 x_171)) (= ?v_20 x_80)) (<= (+ ?v_20 x_58) x_85)) (or ?v_158 (= x_21 x_16))) (= x_177 x_168)) (= x_178 x_169)) (= x_86 x_81)) ?v_156) ?v_157) (and (and (and (and (and (and (and (and (and (= x_176 1) (= x_178 x_168)) (= ?v_20 x_81)) (<= (+ ?v_20 x_59) x_86)) (or (and (and (= x_179 0) ?v_156) ?v_157) (and (and (= x_179 1) (= x_166 x_169)) (= x_175 (not x_166))))) (= x_180 x_171)) (= x_20 x_16)) (= x_22 x_18)) (= x_85 x_80)) ?v_158))) (or (or (and (and (and (= x_181 0) ?v_166) (or (not (<= x_82 ?v_160)) (= x_180 x_166))) ?v_161) (and (and (and (= x_181 1) ?v_159) (xor x_166 x_175)) (= x_87 ?v_167))) (and (and (and (= x_181 2) ?v_159) (= x_166 x_175)) ?v_161))) (or (or (and (and (and (= x_182 0) (not ?v_163)) (or (not ?v_162) (= x_177 x_17))) ?v_165) (and (and (and (= x_182 1) ?v_163) (xor x_17 x_21)) (= x_89 ?v_164))) (and (and (and (= x_182 2) ?v_163) (= x_17 x_21)) ?v_165))) (or (or (and (and (and (= x_183 0) ?v_166) (or (not (<= x_83 ?v_160)) (= x_22 x_19))) ?v_169) (and (and (and (= x_183 1) ?v_159) (not ?v_168)) (= x_88 ?v_167))) (and (and (and (= x_183 2) ?v_159) ?v_168) ?v_169))) (or (and (and (and (and (and (and (and (and (and (= x_167 0) (= x_16 x_162)) (= ?v_22 x_75)) (<= (+ ?v_22 x_58) x_80)) (or ?v_172 (= x_17 x_12))) (= x_168 x_159)) (= x_169 x_160)) (= x_81 x_76)) ?v_170) ?v_171) (and (and (and (and (and (and (and (and (and (= x_167 1) (= x_169 x_159)) (= ?v_22 x_76)) (<= (+ ?v_22 x_59) x_81)) (or (and (and (= x_170 0) ?v_170) ?v_171) (and (and (= x_170 1) (= x_157 x_160)) (= x_166 (not x_157))))) (= x_171 x_162)) (= x_16 x_12)) (= x_18 x_14)) (= x_80 x_75)) ?v_172))) (or (or (and (and (and (= x_172 0) ?v_180) (or (not (<= x_77 ?v_174)) (= x_171 x_157))) ?v_175) (and (and (and (= x_172 1) ?v_173) (xor x_157 x_166)) (= x_82 ?v_181))) (and (and (and (= x_172 2) ?v_173) (= x_157 x_166)) ?v_175))) (or (or (and (and (and (= x_173 0) (not ?v_177)) (or (not ?v_176) (= x_168 x_13))) ?v_179) (and (and (and (= x_173 1) ?v_177) (xor x_13 x_17)) (= x_84 ?v_178))) (and (and (and (= x_173 2) ?v_177) (= x_13 x_17)) ?v_179))) (or (or (and (and (and (= x_174 0) ?v_180) (or (not (<= x_78 ?v_174)) (= x_18 x_15))) ?v_183) (and (and (and (= x_174 1) ?v_173) (not ?v_182)) (= x_83 ?v_181))) (and (and (and (= x_174 2) ?v_173) ?v_182) ?v_183))) (or (and (and (and (and (and (and (and (and (and (= x_158 0) (= x_12 x_153)) (= ?v_24 x_70)) (<= (+ ?v_24 x_58) x_75)) (or ?v_186 (= x_13 x_8))) (= x_159 x_150)) (= x_160 x_151)) (= x_76 x_71)) ?v_184) ?v_185) (and (and (and (and (and (and (and (and (and (= x_158 1) (= x_160 x_150)) (= ?v_24 x_71)) (<= (+ ?v_24 x_59) x_76)) (or (and (and (= x_161 0) ?v_184) ?v_185) (and (and (= x_161 1) (= x_148 x_151)) (= x_157 (not x_148))))) (= x_162 x_153)) (= x_12 x_8)) (= x_14 x_10)) (= x_75 x_70)) ?v_186))) (or (or (and (and (and (= x_163 0) ?v_194) (or (not (<= x_72 ?v_188)) (= x_162 x_148))) ?v_189) (and (and (and (= x_163 1) ?v_187) (xor x_148 x_157)) (= x_77 ?v_195))) (and (and (and (= x_163 2) ?v_187) (= x_148 x_157)) ?v_189))) (or (or (and (and (and (= x_164 0) (not ?v_191)) (or (not ?v_190) (= x_159 x_9))) ?v_193) (and (and (and (= x_164 1) ?v_191) (xor x_9 x_13)) (= x_79 ?v_192))) (and (and (and (= x_164 2) ?v_191) (= x_9 x_13)) ?v_193))) (or (or (and (and (and (= x_165 0) ?v_194) (or (not (<= x_73 ?v_188)) (= x_14 x_11))) ?v_197) (and (and (and (= x_165 1) ?v_187) (not ?v_196)) (= x_78 ?v_195))) (and (and (and (= x_165 2) ?v_187) ?v_196) ?v_197))) (or (and (and (and (and (and (and (and (and (and (= x_149 0) (= x_8 x_144)) (= ?v_26 x_65)) (<= (+ ?v_26 x_58) x_70)) (or ?v_200 (= x_9 x_4))) (= x_150 x_139)) (= x_151 x_141)) (= x_71 x_66)) ?v_198) ?v_199) (and (and (and (and (and (and (and (and (and (= x_149 1) (= x_151 x_139)) (= ?v_26 x_66)) (<= (+ ?v_26 x_59) x_71)) (or (and (and (= x_152 0) ?v_198) ?v_199) (and (and (= x_152 1) (= x_135 x_141)) (= x_148 (not x_135))))) (= x_153 x_144)) (= x_8 x_4)) (= x_10 x_6)) (= x_70 x_65)) ?v_200))) (or (or (and (and (and (= x_154 0) ?v_208) (or (not (<= x_67 ?v_202)) (= x_153 x_135))) ?v_203) (and (and (and (= x_154 1) ?v_201) (xor x_135 x_148)) (= x_72 ?v_209))) (and (and (and (= x_154 2) ?v_201) (= x_135 x_148)) ?v_203))) (or (or (and (and (and (= x_155 0) (not ?v_205)) (or (not ?v_204) (= x_150 x_5))) ?v_207) (and (and (and (= x_155 1) ?v_205) (xor x_5 x_9)) (= x_74 ?v_206))) (and (and (and (= x_155 2) ?v_205) (= x_5 x_9)) ?v_207))) (or (or (and (and (and (= x_156 0) ?v_208) (or (not (<= x_68 ?v_202)) (= x_10 x_7))) ?v_211) (and (and (and (= x_156 1) ?v_201) (not ?v_210)) (= x_73 ?v_209))) (and (and (and (= x_156 2) ?v_201) ?v_210) ?v_211))) (or (and (and (and (and (and (and (and (and (and (= x_137 0) (= x_4 x_138)) (= ?v_28 x_56)) (<= (+ ?v_28 x_58) x_65)) (or ?v_214 (= x_5 x_0))) (= x_139 x_140)) (= x_141 x_142)) (= x_66 x_57)) ?v_212) ?v_213) (and (and (and (and (and (and (and (and (and (= x_137 1) (= x_141 x_140)) (= ?v_28 x_57)) (<= (+ ?v_28 x_59) x_66)) (or (and (and (= x_143 0) ?v_212) ?v_213) (and (and (= x_143 1) (= x_136 x_142)) (= x_135 (not x_136))))) (= x_144 x_138)) (= x_4 x_0)) (= x_6 x_2)) (= x_65 x_56)) ?v_214))) (or (or (and (and (and (= x_145 0) ?v_222) (or (not (<= x_61 ?v_216)) (= x_144 x_136))) ?v_217) (and (and (and (= x_145 1) ?v_215) (xor x_136 x_135)) (= x_67 ?v_223))) (and (and (and (= x_145 2) ?v_215) (= x_136 x_135)) ?v_217))) (or (or (and (and (and (= x_146 0) (not ?v_219)) (or (not ?v_218) (= x_139 x_1))) ?v_221) (and (and (and (= x_146 1) ?v_219) (xor x_1 x_5)) (= x_69 ?v_220))) (and (and (and (= x_146 2) ?v_219) (= x_1 x_5)) ?v_221))) (or (or (and (and (and (= x_147 0) ?v_222) (or (not (<= x_62 ?v_216)) (= x_6 x_3))) ?v_225) (and (and (and (= x_147 1) ?v_215) (not ?v_224)) (= x_68 ?v_223))) (and (and (and (= x_147 2) ?v_215) ?v_224) ?v_225))) (xor x_259 x_260)) (not (= x_265 x_257))))))))))))))))))))
(check-sat)
(exit)
